Maximize
  8 x_experiment_alpha + 10 x_experiment_beta
Subject To
  c1: 3 x_experiment_alpha + 5 x_experiment_beta <= 800
  c2: 5 x_experiment_alpha + 4 x_experiment_beta <= 750
Integer
  x_experiment_alpha x_experiment_beta
End